Traveling Salesman Problem/TSP_generados/Aleatorio1621105138_19.tsp
NAME: Aleatorio1621105138_19.tsp
COMMENT: Randomly generated scenario
TYPE: TSP
DIMENSION: 19
EDGE_WEIGHT_TYPE: ATT
NODE_COORD_SECTION
1 15.17 2.16
2 33.58 31.04
3 17.05 29.99
4 31.98 0.53
5 49.5 34.48
6 27.24 43.21
7 4.87 18.87
8 32.65 13.69
9 19.96 48.59
10 33.87 31.08
11 18.54 37.54
12 30.13 48.95
13 45.42 49.24
14 38.9 3.0
15 28.61 37.4
16 25.16 5.18
17 4.23 37.35
18 18.39 12.44
19 5.66 6.73
