Traveling Salesman Problem/TSP_generados/Aleatorio1621105138_19.opt.tour
NAME: Aleatorio1621105138_19.opt.tour
COMMENT: Optimal solution for Aleatorio1621105138_19 (211.9085421655234)
TYPE: TOUR
DIMENSION: 19
TOUR_SECTION
1 18 16 4 14 8 2 10 5 13 12 9 6 15 11 3 17 7 19
-1
EOF
